10	5
0	5	3	1	5	4	2
1	1	7
2	4	6	8	9	10
3	2	7	6
4	2	9	10
5	2	8	6
6	1	11
7	1	11
8	1	11
9	1	11
10	1	11
11	0
0	0	0	0	0	0	0
1	9	0	4	1	4	0
2	6	5	3	1	4	2
3	1	3	1	1	5	4
4	4	3	5	1	5	4
5	7	0	0	3	3	0
6	10	4	2	3	5	3
7	8	3	0	0	0	0
8	9	4	1	4	4	1
9	10	3	1	0	3	0
10	10	5	5	0	5	2
11	0	0	0	0	0	0
5	5	5	5	5
